SDVRP instances/custom_instances/p04_28_splitx10_0.vrp
NAME:p04_28_splitx10_
BEST_KNOWN: 0
COMMENT: 0
DIMENSION: 710
CAPACITY: 2000
EDGE_WEIGHT_FORMAT: FUNCTION
EDGE_WEIGHT_TYPE: EXACT_2D
NODE_COORD_SECTION
1 0.00000 0.00000
2 -23 8
3 -23 8
4 -23 8
5 -23 8
6 -23 8
7 -23 8
8 -23 8
9 -21 -11
10 -21 -11
11 -21 -11
12 -21 -11
13 -21 -11
14 -21 -11
15 20 -31
16 20 -31
17 -40 -7
18 -40 -7
19 -40 -7
20 34 31
21 34 31
22 34 31
23 34 31
24 -37 30
25 -37 30
26 -37 30
27 -37 30
28 -37 30
29 -37 30
30 29 -36
31 29 -36
32 29 -36
33 29 -36
34 29 -36
35 29 -36
36 29 -36
37 -27 -32
38 -27 -32
39 -27 -32
40 -27 -32
41 -27 -32
42 -27 -32
43 -27 -32
44 -35 -24
45 -35 -24
46 -35 -24
47 -35 -24
48 -35 -24
49 -35 -24
50 49 11
51 49 11
52 49 11
53 49 11
54 49 11
55 49 11
56 11 -2
57 11 -2
58 -48 -33
59 -48 -33
60 -48 -33
61 -48 -33
62 28 7
63 28 7
64 23 -47
65 23 -47
66 23 -47
67 23 -47
68 23 -47
69 -48 16
70 -48 16
71 -48 16
72 -48 16
73 -48 16
74 26 31
75 26 31
76 26 31
77 26 31
78 26 31
79 0 15
80 0 15
81 0 15
82 0 15
83 0 15
84 0 15
85 -30 30
86 -30 30
87 -30 30
88 -30 30
89 -30 30
90 -30 30
91 30 48
92 30 48
93 30 48
94 30 48
95 30 48
96 30 48
97 -33 25
98 -33 25
99 -13 7
100 -13 7
101 -13 7
102 -13 7
103 -44 43
104 -44 43
105 -44 43
106 -44 43
107 -44 43
108 -44 43
109 -35 -1
110 -35 -1
111 -35 -1
112 -46 -20
113 -46 -20
114 -46 -20
115 -19 36
116 -19 36
117 -19 36
118 -19 36
119 -19 36
120 -19 36
121 34 38
122 34 38
123 34 38
124 34 38
125 34 38
126 15 44
127 15 44
128 15 44
129 15 44
130 15 44
131 15 44
132 15 44
133 -49 42
134 -49 42
135 -49 -17
136 -49 -17
137 -49 -17
138 -49 -17
139 30 -35
140 30 -35
141 30 -35
142 30 -35
143 29 4
144 29 4
145 29 4
146 1 2
147 1 2
148 1 2
149 1 2
150 1 2
151 1 2
152 -21 -15
153 -21 -15
154 13 -18
155 13 -18
156 13 -18
157 13 -18
158 13 -18
159 13 -18
160 13 -18
161 -41 -14
162 -41 -14
163 -41 -14
164 -41 -14
165 -41 -14
166 -15 31
167 -15 31
168 -15 31
169 -15 31
170 -15 31
171 -15 31
172 -15 31
173 23 30
174 23 30
175 23 30
176 23 30
177 23 30
178 23 30
179 -16 -25
180 -16 -25
181 -16 -25
182 12 28
183 12 28
184 19 20
185 19 20
186 19 20
187 19 20
188 19 20
189 19 20
190 22 22
191 22 22
192 22 22
193 22 22
194 35 10
195 35 10
196 35 10
197 35 10
198 35 10
199 35 10
200 35 10
201 6 -24
202 6 -24
203 6 -24
204 6 -24
205 6 -24
206 6 -24
207 -27 -7
208 -27 -7
209 -27 -7
210 -27 -7
211 -27 -7
212 -27 -7
213 33 48
214 33 48
215 33 48
216 33 48
217 33 48
218 33 48
219 -50 18
220 -50 18
221 -50 18
222 -50 18
223 -50 18
224 -50 18
225 -18 -2
226 -18 -2
227 -18 -2
228 -18 -2
229 -18 -2
230 -18 -2
231 -18 -2
232 44 2
233 44 2
234 44 2
235 -31 40
236 -31 40
237 -31 40
238 -31 40
239 -31 40
240 -31 40
241 3 -47
242 3 -47
243 3 -47
244 3 -47
245 3 -47
246 3 -47
247 -23 -7
248 -23 -7
249 -23 -7
250 -23 -7
251 -23 -7
252 42 15
253 42 15
254 42 15
255 42 15
256 42 15
257 -29 37
258 -29 37
259 -29 37
260 -29 37
261 -29 37
262 -48 3
263 -48 3
264 -48 3
265 -48 3
266 -35 -50
267 -35 -50
268 -35 -50
269 -35 -50
270 -35 -50
271 -42 -38
272 -42 -38
273 -42 -38
274 -42 -38
275 -42 -38
276 -42 -38
277 -29 4
278 -29 4
279 -29 4
280 -29 4
281 47 -44
282 47 -44
283 47 -44
284 47 -44
285 47 -44
286 47 -44
287 5 -27
288 5 -27
289 5 -27
290 5 -27
291 1 -28
292 1 -28
293 -21 16
294 -21 16
295 -21 16
296 -21 16
297 -21 16
298 23 -15
299 23 -15
300 23 -15
301 23 -15
302 23 -15
303 -34 -43
304 -34 -43
305 -34 -43
306 -34 -43
307 -34 -43
308 -27 -1
309 -27 -1
310 -27 -1
311 -27 -1
312 5 13
313 5 13
314 7 -42
315 7 -42
316 7 -42
317 7 -42
318 44 -7
319 44 -7
320 44 -7
321 44 -7
322 44 -7
323 10 -45
324 10 -45
325 10 -45
326 10 -45
327 10 -45
328 -33 -26
329 -33 -26
330 -33 -26
331 -33 -26
332 14 -30
333 14 -30
334 14 -30
335 14 -30
336 14 -30
337 14 -30
338 14 -30
339 -28 -26
340 -28 -26
341 -28 -26
342 -27 39
343 -27 39
344 -27 39
345 -27 39
346 -27 39
347 6 -11
348 6 -11
349 6 -11
350 6 -11
351 6 -11
352 6 -11
353 -1 19
354 -1 19
355 -1 19
356 -1 19
357 21 -36
358 21 -36
359 21 -36
360 21 -36
361 21 -36
362 21 -36
363 11 31
364 11 31
365 13 31
366 13 31
367 13 31
368 13 31
369 13 31
370 13 31
371 32 -25
372 32 -25
373 32 -25
374 32 -25
375 32 -25
376 23 22
377 23 22
378 23 22
379 23 22
380 23 22
381 23 22
382 23 22
383 23 22
384 36 35
385 36 35
386 36 35
387 36 35
388 36 35
389 36 35
390 35 -4
391 35 -4
392 35 -4
393 35 -4
394 -39 -6
395 -39 -6
396 -39 -6
397 -39 -6
398 -39 -6
399 43 44
400 43 44
401 43 44
402 34 33
403 34 33
404 34 33
405 34 33
406 -24 -29
407 -24 -29
408 -24 -29
409 -24 -29
410 -24 -29
411 -24 -29
412 -24 -29
413 33 4
414 33 4
415 33 -9
416 33 -9
417 33 -9
418 33 -9
419 33 -9
420 33 -9
421 33 -9
422 -43 43
423 -43 43
424 -43 43
425 -43 43
426 -43 43
427 -43 43
428 -43 43
429 -45 -25
430 -45 -25
431 41 43
432 41 43
433 41 43
434 -8 49
435 -8 49
436 -8 49
437 -8 49
438 24 33
439 24 33
440 24 33
441 -49 -38
442 -49 -38
443 -49 -38
444 31 -3
445 31 -3
446 31 -3
447 31 -3
448 11 -15
449 11 -15
450 11 -15
451 11 -15
452 12 -36
453 12 -36
454 12 -36
455 12 -36
456 -10 10
457 -10 10
458 -10 10
459 -10 10
460 -10 10
461 -10 10
462 44 17
463 44 17
464 44 17
465 44 17
466 44 17
467 6 -35
468 6 -35
469 6 -35
470 6 -35
471 6 -35
472 48 23
473 48 23
474 48 23
475 26 -38
476 26 -38
477 26 -38
478 -3 2
479 -3 2
480 -3 2
481 -3 2
482 -3 2
483 -37 21
484 -37 21
485 9 -40
486 9 -40
487 9 -40
488 9 -40
489 9 -40
490 11 0
491 11 0
492 11 0
493 11 0
494 14 -26
495 14 -26
496 14 -26
497 -7 -22
498 -7 -22
499 -7 -22
500 -7 -22
501 -7 -22
502 -7 -22
503 -7 -22
504 -33 36
505 -33 36
506 -33 36
507 -33 36
508 -33 36
509 -33 36
510 44 35
511 44 35
512 44 35
513 15 31
514 15 31
515 15 31
516 15 31
517 15 31
518 34 -28
519 34 -28
520 34 -28
521 34 -28
522 34 -28
523 -2 -5
524 -2 -5
525 -2 -5
526 -2 -5
527 -2 -5
528 -2 -5
529 -2 -5
530 49 -8
531 49 -8
532 49 -8
533 -27 -45
534 -27 -45
535 -27 -45
536 -31 15
537 -31 15
538 -31 15
539 -31 15
540 -31 15
541 -8 -13
542 -8 -13
543 -8 -13
544 -8 -13
545 -8 -13
546 -8 -13
547 4 -31
548 4 -31
549 27 -8
550 27 -8
551 27 -8
552 27 -8
553 27 -8
554 -2 -12
555 -2 -12
556 -2 -12
557 -2 -12
558 -29 40
559 -29 40
560 -29 40
561 -29 40
562 -29 40
563 16 -2
564 16 -2
565 16 -2
566 16 -2
567 30 11
568 30 11
569 30 11
570 30 11
571 30 11
572 30 11
573 30 11
574 -32 48
575 -32 48
576 -32 48
577 -32 48
578 -32 48
579 -32 48
580 -32 48
581 -9 -17
582 -9 -17
583 -9 -17
584 -9 -17
585 -9 -17
586 8 4
587 8 4
588 8 4
589 8 4
590 25 -14
591 25 -14
592 25 -14
593 25 -14
594 25 -14
595 31 -6
596 31 -6
597 31 -6
598 31 -6
599 47 -48
600 47 -48
601 47 -48
602 47 -48
603 47 -48
604 47 -48
605 20 -43
606 20 -43
607 20 -43
608 20 -43
609 20 -43
610 39 -44
611 39 -44
612 39 -44
613 39 -44
614 39 -44
615 39 -44
616 39 -44
617 8 -16
618 8 -16
619 8 -16
620 8 -16
621 8 10
622 8 10
623 8 10
624 8 10
625 -32 7
626 -32 7
627 -32 7
628 -32 7
629 -32 7
630 21 45
631 21 45
632 21 45
633 21 45
634 21 45
635 21 45
636 21 45
637 21 45
638 -10 13
639 -10 13
640 -10 13
641 -10 13
642 12 -45
643 12 -45
644 12 -45
645 12 -45
646 12 -45
647 26 -15
648 26 -15
649 26 -15
650 26 -15
651 26 -15
652 26 -15
653 15 47
654 15 47
655 15 47
656 27 -41
657 27 -41
658 27 -41
659 27 -41
660 50 29
661 50 29
662 50 29
663 50 29
664 -42 3
665 -42 3
666 -42 3
667 -42 3
668 -46 25
669 -46 25
670 -46 25
671 -46 25
672 -46 25
673 -46 25
674 36 -48
675 36 -48
676 36 -48
677 36 -48
678 36 -48
679 36 -48
680 -37 -36
681 -37 -36
682 -37 -36
683 -37 -36
684 22 -47
685 22 -47
686 22 -47
687 7 -25
688 7 -25
689 7 -25
690 15 -35
691 15 -35
692 15 -35
693 15 -35
694 -40 50
695 -40 50
696 -40 50
697 -40 50
698 -40 50
699 -40 50
700 -46 35
701 -46 35
702 -46 35
703 -46 35
704 -46 35
705 17 -16
706 17 -16
707 17 -16
708 17 -16
709 17 -16
710 17 -16
DEMAND_SECTION
1 0
2 400
3 400
4 100
5 20
6 20
7 20
8 10
9 400
10 400
11 20
12 20
13 20
14 10
15 400
16 200
17 400
18 200
19 100
20 400
21 100
22 20
23 10
24 400
25 100
26 20
27 20
28 20
29 20
30 400
31 400
32 100
33 20
34 20
35 20
36 10
37 200
38 100
39 20
40 20
41 20
42 20
43 10
44 400
45 20
46 20
47 20
48 20
49 10
50 400
51 400
52 20
53 20
54 20
55 10
56 200
57 100
58 200
59 20
60 20
61 10
62 400
63 10
64 400
65 400
66 20
67 20
68 10
69 400
70 100
71 20
72 20
73 20
74 400
75 200
76 100
77 20
78 20
79 400
80 100
81 20
82 20
83 20
84 10
85 200
86 100
87 20
88 20
89 20
90 20
91 400
92 200
93 100
94 20
95 20
96 20
97 400
98 400
99 400
100 400
101 20
102 10
103 200
104 100
105 20
106 20
107 20
108 10
109 200
110 100
111 10
112 400
113 100
114 20
115 400
116 200
117 20
118 20
119 20
120 10
121 400
122 100
123 20
124 20
125 10
126 400
127 200
128 20
129 20
130 20
131 20
132 10
133 400
134 10
135 400
136 200
137 100
138 20
139 400
140 400
141 20
142 10
143 400
144 200
145 100
146 200
147 20
148 20
149 20
150 20
151 10
152 400
153 100
154 400
155 400
156 100
157 20
158 20
159 20
160 10
161 200
162 20
163 20
164 20
165 10
166 400
167 400
168 100
169 20
170 20
171 20
172 20
173 400
174 200
175 20
176 20
177 20
178 10
179 200
180 100
181 20
182 200
183 100
184 400
185 400
186 100
187 20
188 20
189 20
190 400
191 400
192 20
193 20
194 200
195 100
196 20
197 20
198 20
199 20
200 10
201 400
202 200
203 100
204 20
205 20
206 20
207 200
208 20
209 20
210 20
211 20
212 10
213 400
214 200
215 20
216 20
217 20
218 10
219 200
220 20
221 20
222 20
223 20
224 10
225 200
226 100
227 20
228 20
229 20
230 20
231 10
232 400
233 400
234 10
235 400
236 400
237 100
238 20
239 20
240 10
241 400
242 200
243 20
244 20
245 20
246 10
247 400
248 400
249 100
250 20
251 10
252 400
253 400
254 100
255 20
256 20
257 400
258 400
259 20
260 20
261 10
262 400
263 20
264 20
265 10
266 200
267 20
268 20
269 20
270 10
271 400
272 400
273 20
274 20
275 20
276 10
277 200
278 20
279 20
280 10
281 400
282 200
283 100
284 20
285 20
286 20
287 400
288 400
289 100
290 20
291 200
292 100
293 400
294 400
295 20
296 20
297 20
298 400
299 200
300 20
301 20
302 10
303 400
304 200
305 20
306 20
307 20
308 400
309 400
310 100
311 20
312 400
313 10
314 400
315 200
316 100
317 10
318 200
319 100
320 20
321 20
322 20
323 400
324 20
325 20
326 20
327 20
328 400
329 400
330 20
331 10
332 400
333 200
334 20
335 20
336 20
337 20
338 10
339 400
340 400
341 200
342 400
343 400
344 20
345 20
346 20
347 200
348 100
349 20
350 20
351 20
352 20
353 200
354 100
355 20
356 20
357 200
358 20
359 20
360 20
361 20
362 10
363 400
364 100
365 400
366 400
367 20
368 20
369 20
370 10
371 400
372 100
373 20
374 20
375 20
376 400
377 400
378 100
379 20
380 20
381 20
382 20
383 10
384 200
385 100
386 20
387 20
388 20
389 20
390 400
391 200
392 20
393 10
394 400
395 20
396 20
397 20
398 20
399 400
400 400
401 200
402 400
403 400
404 20
405 10
406 400
407 200
408 100
409 20
410 20
411 20
412 10
413 400
414 200
415 400
416 200
417 100
418 20
419 20
420 20
421 10
422 400
423 200
424 20
425 20
426 20
427 20
428 10
429 200
430 100
431 400
432 400
433 10
434 400
435 400
436 20
437 10
438 200
439 100
440 10
441 400
442 400
443 200
444 200
445 100
446 20
447 20
448 400
449 100
450 20
451 10
452 200
453 20
454 20
455 20
456 200
457 100
458 20
459 20
460 20
461 10
462 400
463 200
464 20
465 20
466 10
467 400
468 400
469 100
470 20
471 20
472 400
473 200
474 100
475 400
476 200
477 10
478 400
479 400
480 20
481 20
482 20
483 400
484 100
485 400
486 100
487 20
488 20
489 10
490 400
491 400
492 100
493 10
494 400
495 200
496 10
497 400
498 100
499 20
500 20
501 20
502 20
503 10
504 400
505 400
506 20
507 20
508 20
509 20
510 200
511 100
512 20
513 400
514 400
515 100
516 20
517 10
518 400
519 100
520 20
521 20
522 10
523 400
524 200
525 100
526 20
527 20
528 20
529 10
530 400
531 200
532 10
533 400
534 400
535 200
536 200
537 20
538 20
539 20
540 20
541 400
542 400
543 20
544 20
545 20
546 20
547 400
548 20
549 400
550 100
551 20
552 20
553 10
554 400
555 20
556 20
557 10
558 400
559 400
560 20
561 20
562 10
563 200
564 100
565 20
566 10
567 400
568 400
569 100
570 20
571 20
572 20
573 20
574 400
575 200
576 20
577 20
578 20
579 20
580 10
581 400
582 200
583 20
584 20
585 10
586 200
587 100
588 20
589 10
590 400
591 400
592 20
593 20
594 10
595 200
596 100
597 20
598 10
599 400
600 400
601 100
602 20
603 20
604 20
605 200
606 20
607 20
608 20
609 20
610 400
611 400
612 100
613 20
614 20
615 20
616 10
617 200
618 20
619 20
620 10
621 400
622 400
623 100
624 20
625 400
626 400
627 100
628 20
629 10
630 400
631 400
632 100
633 20
634 20
635 20
636 20
637 10
638 400
639 20
640 20
641 20
642 200
643 20
644 20
645 20
646 10
647 400
648 200
649 20
650 20
651 20
652 20
653 400
654 200
655 10
656 400
657 20
658 20
659 20
660 400
661 20
662 20
663 20
664 400
665 100
666 20
667 20
668 400
669 100
670 20
671 20
672 20
673 10
674 400
675 20
676 20
677 20
678 20
679 10
680 400
681 100
682 20
683 20
684 400
685 20
686 10
687 400
688 20
689 10
690 400
691 400
692 100
693 10
694 400
695 200
696 20
697 20
698 20
699 20
700 400
701 400
702 20
703 20
704 10
705 400
706 100
707 20
708 20
709 20
710 20
DEPOT_SECTION
1
-1
EOF