SDVRP instances/custom_instances/p04_28_splitx10_0.sol
709 -4 6 5 7 1 3 2 307 309 310 308 226 228 227 229 -8 11 10 13 12 210 206 211 207 209 208 249 247 246 248 250 230 225 224 -9 152 151 179 180 178 497 499 500 496 501 502 498 -15 34 32 31 30 35 33 29 139 138 140 141 -21 19 20 22 383 403 404 402 401 192 191 190 -38 41 37 682 679 681 680 272 274 275 271 273 270 327 -47 48 45 43 441 442 440 59 58 57 60 428 429 -52 54 50 53 51 49 462 252 251 254 253 -55 56 489 491 492 490 -75 73 77 74 172 177 174 175 176 173 516 512 514 182 -76 123 124 121 122 120 213 214 215 217 212 216 90 92 93 95 91 94 -83 79 81 78 80 82 352 355 353 354 165 166 167 171 168 -84 88 238 237 235 239 234 236 558 559 557 -89 87 85 86 508 505 507 506 421 425 427 423 426 424 133 132 699 702 703 701 700 -100 99 101 98 455 457 460 456 459 458 -108 109 110 666 665 663 18 16 17 397 395 393 394 396 -126 633 632 630 631 629 634 636 635 438 437 439 184 -127 129 131 125 130 128 654 653 652 436 435 434 433 -142 144 143 62 61 571 572 567 566 570 569 -147 149 146 145 148 150 -160 164 162 161 163 134 136 135 137 112 111 113 46 44 330 328 329 -169 170 118 116 114 119 115 117 343 342 345 341 344 260 257 -181 515 513 366 367 368 364 365 369 363 362 -188 185 183 187 186 189 381 379 377 375 382 380 376 378 -199 198 255 465 463 461 464 472 473 471 662 660 661 659 511 510 509 -202 288 468 469 470 467 466 546 547 290 291 -203 201 204 205 200 686 687 688 289 287 286 -231 233 232 531 529 530 318 319 321 317 320 391 392 -241 240 244 243 242 245 316 314 313 315 486 488 487 485 484 -279 276 277 278 624 625 627 626 628 292 293 -285 284 281 280 282 283 603 601 599 598 602 600 614 475 476 -295 296 294 26 23 27 24 28 25 503 504 256 259 258 639 638 640 -311 312 620 623 621 622 585 586 588 587 -325 324 322 323 326 643 642 645 641 644 474 356 14 494 495 -337 334 335 692 691 606 605 607 608 604 64 66 63 65 67 684 685 683 453 452 454 451 -339 340 338 36 40 39 42 405 407 406 -346 349 350 616 617 619 618 156 153 154 158 157 155 159 448 447 450 449 -348 347 351 493 332 333 331 336 690 689 -358 357 359 360 361 658 656 657 655 673 677 676 678 674 675 612 610 615 611 609 613 -388 385 386 387 384 400 399 398 431 430 432 -408 410 411 409 303 302 305 306 304 268 265 269 267 266 532 534 533 -422 105 103 106 102 104 107 698 695 694 693 696 697 577 579 576 578 574 573 575 561 560 -445 446 444 443 389 390 413 412 194 193 195 196 197 568 -477 479 478 481 480 -523 527 524 528 525 522 526 -538 535 539 537 536 483 482 97 96 637 -540 545 542 543 541 544 583 580 582 584 581 553 554 555 556 -550 549 551 552 548 414 420 416 415 418 419 417 594 596 595 597 562 563 564 565 -590 589 592 593 591 299 301 297 298 300 704 706 708 707 -646 648 649 651 650 647 370 372 371 373 374 518 520 521 517 519 709 705 -664 261 262 264 263 72 70 68 69 71 219 221 222 223 220 218 668 672 671 670 669 667 0 





OBJ=
4375.367
BEST_KNOWN=
0.000